 Minimize
[ 1.0000000000000000 Z0 * Z3  ]
Subject to
c1: [ -14.2031250000000000 Z0 * Z0  + 12.7500000000000000 Z0 * Z1  + 1.0000000000000000 Z0 * Z3 -3.0000000000000000 Z1 * Z1 -3.0000000000000000 Z1 * Z2 -4.5000000000000000 Z1 * Z5 -5.2500000000000000 Z1 * Z7  + 2.0000000000000000 Z2 * Z4  + 1.0000000000000000 Z4 * Z5  + 2.0000000000000000 Z4 * Z7 -1.0000000000000000 Z6 * Z6 -1.0000000000000000 Z8 * Z8  ] = 0.000000
ac1: Z0 - 1 = 0
ac2: [ 1.0000000000000000 Z0 * Z4 -1.0000000000000000 Z1 * Z1  ] = 0
ac3: [ 1.0000000000000000 Z0 * Z5 -1.0000000000000000 Z2 * Z2  ] = 0
ac4: [ 1.0000000000000000 Z0 * Z7 -1.0000000000000000 Z2 * Z5  ] = 0
ac5: [ 1.0000000000000000 Z2 * Z7 -1.0000000000000000 Z5 * Z5  ] = 0
ac6: [ 1.0000000000000000 Z0 * Z6 -1.0000000000000000 Z1 * Z5  ] = 0
ac7: [ 1.0000000000000000 Z1 * Z6 -1.0000000000000000 Z4 * Z5  ] = 0
ac8: [ 1.0000000000000000 Z0 * Z8 -1.0000000000000000 Z1 * Z7  ] = 0
ac9: [ 1.0000000000000000 Z0 * Z8 -1.0000000000000000 Z2 * Z6  ] = 0
ac10: [ 1.0000000000000000 Z1 * Z8 -1.0000000000000000 Z4 * Z7  ] = 0
ac11: [ 1.0000000000000000 Z2 * Z8 -1.0000000000000000 Z5 * Z6  ] = 0
ac12: [ 1.0000000000000000 Z5 * Z8 -1.0000000000000000 Z6 * Z7  ] = 0
Bounds
1 <= Z0 <= 1
-100000000.0000000000000000 <= Z1 <= 200.0000000000000000
-100000000.0000000000000000 <= Z2 <= 200.0000000000000000
-100000000.0000000000000000 <= Z3 <= 100000000.0000000000000000
-20000000000.0000000000000000 <= Z4 <= 10000000000000000.0000000000000000
-20000000000.0000000000000000 <= Z5 <= 10000000000000000.0000000000000000
-1000000000000000117440512.0000000000000000 <= Z6 <= 2000000000000000000.0000000000000000
-1000000000000000117440512.0000000000000000 <= Z7 <= 2000000000000000000.0000000000000000
-200000000000000043889197056.0000000000000000 <= Z8 <= 100000000000000023380560713875456.0000000000000000
Generals
Z1 Z2 
End